p cnf 1357 3400
1 0
2 0
3 0
4 0
5 0
6 0
7 0
8 0
9 0
10 0
-11 0
-12 0
-13 0
-14 0
-15 0
-16 0
-17 0
-18 0
-19 0
-20 0
21 22 0
23 22 0
24 22 0
25 22 0
26 22 0
27 22 0
28 22 0
-29 0
-1 -30 22 0
1 -22 -30 0
30 -22 -1 0
1 22 30 0
-30 0
23 31 0
24 31 0
25 31 0
26 31 0
27 31 0
28 31 0
-32 0
-33 31 -34 0
33 -31 -34 0
34 -31 -33 0
33 31 34 0
-34 0
24 35 0
25 35 0
26 35 0
27 35 0
28 35 0
-36 0
-37 35 -38 0
37 -35 -38 0
38 -35 -37 0
37 35 38 0
-38 0
-39 35 -40 0
39 -35 -40 0
40 -35 -39 0
39 35 40 0
-40 0
-41 35 -42 0
41 -35 -42 0
42 -35 -41 0
41 35 42 0
-42 0
-43 35 -44 0
43 -35 -44 0
44 -35 -43 0
43 35 44 0
-44 0
-45 35 -46 0
45 -35 -46 0
46 -35 -45 0
45 35 46 0
-46 0
47 48 0
49 48 0
50 48 0
51 48 0
52 48 0
53 48 0
54 48 0
55 48 0
56 48 0
57 48 0
58 48 0
-59 0
-2 48 -60 0
2 -48 -60 0
60 -48 -2 0
2 48 60 0
-60 0
49 61 0
50 61 0
51 61 0
52 61 0
53 61 0
54 61 0
55 61 0
56 61 0
57 61 0
58 61 0
-62 0
-63 61 -64 0
63 -61 -64 0
64 -61 -63 0
63 61 64 0
-64 0
50 65 0
51 65 0
52 65 0
53 65 0
54 65 0
55 65 0
56 65 0
57 65 0
58 65 0
-66 0
-67 65 -68 0
67 -65 -68 0
68 -65 -67 0
67 65 68 0
-68 0
51 69 0
52 69 0
53 69 0
54 69 0
55 69 0
56 69 0
57 69 0
58 69 0
-70 0
-71 69 -72 0
71 -69 -72 0
72 -69 -71 0
71 69 72 0
-72 0
52 73 0
53 73 0
54 73 0
55 73 0
56 73 0
57 73 0
58 73 0
-74 0
-75 73 -76 0
75 -73 -76 0
76 -73 -75 0
75 73 76 0
-76 0
53 77 0
54 77 0
55 77 0
56 77 0
57 77 0
58 77 0
-78 0
-79 77 -80 0
79 -77 -80 0
80 -77 -79 0
79 77 80 0
-80 0
-81 77 -82 0
81 -77 -82 0
82 -77 -81 0
81 77 82 0
-82 0
-83 77 -84 0
83 -77 -84 0
84 -77 -83 0
83 77 84 0
-84 0
-85 77 -86 0
85 -77 -86 0
86 -77 -85 0
85 77 86 0
-86 0
-87 77 -88 0
87 -77 -88 0
88 -77 -87 0
87 77 88 0
-88 0
-89 77 -90 0
89 -77 -90 0
90 -77 -89 0
89 77 90 0
-90 0
91 92 0
93 92 0
94 92 0
95 92 0
96 92 0
97 92 0
98 92 0
99 92 0
100 92 0
101 92 0
-102 0
-3 92 -103 0
3 -92 -103 0
103 -92 -3 0
3 92 103 0
-103 0
93 104 0
94 104 0
95 104 0
96 104 0
97 104 0
98 104 0
99 104 0
100 104 0
101 104 0
-105 0
-106 104 -107 0
106 -104 -107 0
107 -104 -106 0
106 104 107 0
-107 0
94 108 0
95 108 0
96 108 0
97 108 0
98 108 0
99 108 0
100 108 0
101 108 0
-109 0
-110 108 -111 0
110 -108 -111 0
111 -108 -110 0
110 108 111 0
-111 0
95 112 0
96 112 0
97 112 0
98 112 0
99 112 0
100 112 0
101 112 0
-113 0
-114 112 -115 0
114 -112 -115 0
115 -112 -114 0
114 112 115 0
-115 0
96 116 0
97 116 0
98 116 0
99 116 0
100 116 0
101 116 0
-117 0
-118 116 -119 0
118 -116 -119 0
119 -116 -118 0
118 116 119 0
-119 0
97 120 0
98 120 0
99 120 0
100 120 0
101 120 0
-121 0
-122 120 -123 0
122 -120 -123 0
123 -120 -122 0
122 120 123 0
-123 0
-124 120 -125 0
124 -120 -125 0
125 -120 -124 0
124 120 125 0
-125 0
-126 120 -127 0
126 -120 -127 0
127 -120 -126 0
126 120 127 0
-127 0
-128 120 -129 0
128 -120 -129 0
129 -120 -128 0
128 120 129 0
-129 0
-130 120 -131 0
130 -120 -131 0
131 -120 -130 0
130 120 131 0
-131 0
132 133 0
134 133 0
135 133 0
136 133 0
-137 0
-4 133 -138 0
4 -133 -138 0
138 -133 -4 0
4 133 138 0
-138 0
134 139 0
135 139 0
136 139 0
-134 -135 -136 -139 0
-140 139 -141 0
140 -139 -141 0
141 -139 -140 0
140 139 141 0
-141 0
135 142 0
136 142 0
-135 -136 -142 0
-143 142 -144 0
143 -142 -144 0
144 -142 -143 0
143 142 144 0
-144 0
145 -136 0
136 -145 0
146 147 0
148 147 0
149 147 0
150 147 0
151 147 0
152 147 0
153 147 0
154 147 0
155 147 0
156 147 0
-157 0
-5 147 -158 0
5 -147 -158 0
158 -147 -5 0
5 147 158 0
-158 0
148 159 0
149 159 0
150 159 0
151 159 0
152 159 0
153 159 0
154 159 0
155 159 0
156 159 0
-160 0
-161 159 -162 0
161 -159 -162 0
162 -159 -161 0
161 159 162 0
-162 0
149 163 0
150 163 0
151 163 0
152 163 0
153 163 0
154 163 0
155 163 0
156 163 0
-164 0
-165 163 -166 0
165 -163 -166 0
166 -163 -165 0
165 163 166 0
-166 0
150 167 0
151 167 0
152 167 0
153 167 0
154 167 0
155 167 0
156 167 0
-168 0
-169 167 -170 0
169 -167 -170 0
170 -167 -169 0
169 167 170 0
-170 0
151 171 0
152 171 0
153 171 0
154 171 0
155 171 0
156 171 0
-172 0
-173 171 -174 0
173 -171 -174 0
174 -171 -173 0
173 171 174 0
-174 0
152 175 0
153 175 0
154 175 0
155 175 0
156 175 0
-176 0
-177 175 -178 0
177 -175 -178 0
178 -175 -177 0
177 175 178 0
-178 0
-179 175 -180 0
179 -175 -180 0
180 -175 -179 0
179 175 180 0
-180 0
-181 175 -182 0
181 -175 -182 0
182 -175 -181 0
181 175 182 0
-182 0
-183 175 -184 0
183 -175 -184 0
184 -175 -183 0
183 175 184 0
-184 0
-185 175 -186 0
185 -175 -186 0
186 -175 -185 0
185 175 186 0
-186 0
187 188 0
189 188 0
190 188 0
191 188 0
192 188 0
193 188 0
194 188 0
195 188 0
196 188 0
-197 0
-6 188 -198 0
6 -188 -198 0
198 -188 -6 0
6 188 198 0
-198 0
189 199 0
190 199 0
191 199 0
192 199 0
193 199 0
194 199 0
195 199 0
196 199 0
-200 0
-201 199 -202 0
201 -199 -202 0
202 -199 -201 0
201 199 202 0
-202 0
190 203 0
191 203 0
192 203 0
193 203 0
194 203 0
195 203 0
196 203 0
-204 0
-205 203 -206 0
205 -203 -206 0
206 -203 -205 0
205 203 206 0
-206 0
191 207 0
192 207 0
193 207 0
194 207 0
195 207 0
196 207 0
-208 0
-209 207 -210 0
209 -207 -210 0
210 -207 -209 0
209 207 210 0
-210 0
192 211 0
193 211 0
194 211 0
195 211 0
196 211 0
-212 0
-213 211 -214 0
213 -211 -214 0
214 -211 -213 0
213 211 214 0
-214 0
-215 211 -216 0
215 -211 -216 0
216 -211 -215 0
215 211 216 0
-216 0
-217 211 -218 0
217 -211 -218 0
218 -211 -217 0
217 211 218 0
-218 0
-219 211 -220 0
219 -211 -220 0
220 -211 -219 0
219 211 220 0
-220 0
-221 211 -222 0
221 -211 -222 0
222 -211 -221 0
221 211 222 0
-222 0
223 224 0
225 224 0
226 224 0
227 224 0
228 224 0
229 224 0
230 224 0
231 224 0
232 224 0
233 224 0
234 224 0
-235 0
-7 224 -236 0
7 -224 -236 0
236 -224 -7 0
7 224 236 0
-236 0
225 237 0
226 237 0
227 237 0
228 237 0
229 237 0
230 237 0
231 237 0
232 237 0
233 237 0
234 237 0
-238 0
-239 237 -240 0
239 -237 -240 0
240 -237 -239 0
239 237 240 0
-240 0
226 241 0
227 241 0
228 241 0
229 241 0
230 241 0
231 241 0
232 241 0
233 241 0
234 241 0
-242 0
-243 241 -244 0
243 -241 -244 0
244 -241 -243 0
243 241 244 0
-244 0
227 245 0
228 245 0
229 245 0
230 245 0
231 245 0
232 245 0
233 245 0
234 245 0
-246 0
-247 245 -248 0
247 -245 -248 0
248 -245 -247 0
247 245 248 0
-248 0
228 249 0
229 249 0
230 249 0
231 249 0
232 249 0
233 249 0
234 249 0
-250 0
-251 249 -252 0
251 -249 -252 0
252 -249 -251 0
251 249 252 0
-252 0
229 253 0
230 253 0
231 253 0
232 253 0
233 253 0
234 253 0
-254 0
-255 253 -256 0
255 -253 -256 0
256 -253 -255 0
255 253 256 0
-256 0
-257 253 -258 0
257 -253 -258 0
258 -253 -257 0
257 253 258 0
-258 0
-259 253 -260 0
259 -253 -260 0
260 -253 -259 0
259 253 260 0
-260 0
-261 253 -262 0
261 -253 -262 0
262 -253 -261 0
261 253 262 0
-262 0
-263 253 -264 0
263 -253 -264 0
264 -253 -263 0
263 253 264 0
-264 0
-265 253 -266 0
265 -253 -266 0
266 -253 -265 0
265 253 266 0
-266 0
267 268 0
269 268 0
270 268 0
271 268 0
272 268 0
273 268 0
274 268 0
275 268 0
276 268 0
-277 0
-8 268 -278 0
8 -268 -278 0
278 -268 -8 0
8 268 278 0
-278 0
269 279 0
270 279 0
271 279 0
272 279 0
273 279 0
274 279 0
275 279 0
276 279 0
-280 0
-281 279 -282 0
281 -279 -282 0
282 -279 -281 0
281 279 282 0
-282 0
270 283 0
271 283 0
272 283 0
273 283 0
274 283 0
275 283 0
276 283 0
-284 0
-285 283 -286 0
285 -283 -286 0
286 -283 -285 0
285 283 286 0
-286 0
271 287 0
272 287 0
273 287 0
274 287 0
275 287 0
276 287 0
-288 0
-289 287 -290 0
289 -287 -290 0
290 -287 -289 0
289 287 290 0
-290 0
272 291 0
273 291 0
274 291 0
275 291 0
276 291 0
-292 0
-293 291 -294 0
293 -291 -294 0
294 -291 -293 0
293 291 294 0
-294 0
273 295 0
274 295 0
275 295 0
276 295 0
-296 0
-297 295 -298 0
297 -295 -298 0
298 -295 -297 0
297 295 298 0
-298 0
-299 295 -300 0
299 -295 -300 0
300 -295 -299 0
299 295 300 0
-300 0
-301 295 -302 0
301 -295 -302 0
302 -295 -301 0
301 295 302 0
-302 0
-303 295 -304 0
303 -295 -304 0
304 -295 -303 0
303 295 304 0
-304 0
305 306 0
307 306 0
308 306 0
309 306 0
310 306 0
311 306 0
312 306 0
313 306 0
314 306 0
315 306 0
316 306 0
-317 0
-9 306 -318 0
9 -306 -318 0
318 -306 -9 0
9 306 318 0
-318 0
307 319 0
308 319 0
309 319 0
310 319 0
311 319 0
312 319 0
313 319 0
314 319 0
315 319 0
316 319 0
-320 0
-321 319 -322 0
321 -319 -322 0
322 -319 -321 0
321 319 322 0
-322 0
308 323 0
309 323 0
310 323 0
311 323 0
312 323 0
313 323 0
314 323 0
315 323 0
316 323 0
-324 0
-325 323 -326 0
325 -323 -326 0
326 -323 -325 0
325 323 326 0
-326 0
309 327 0
310 327 0
311 327 0
312 327 0
313 327 0
314 327 0
315 327 0
316 327 0
-328 0
-329 327 -330 0
329 -327 -330 0
330 -327 -329 0
329 327 330 0
-330 0
310 331 0
311 331 0
312 331 0
313 331 0
314 331 0
315 331 0
316 331 0
-332 0
-333 331 -334 0
333 -331 -334 0
334 -331 -333 0
333 331 334 0
-334 0
311 335 0
312 335 0
313 335 0
314 335 0
315 335 0
316 335 0
-336 0
-337 335 -338 0
337 -335 -338 0
338 -335 -337 0
337 335 338 0
-338 0
-339 335 -340 0
339 -335 -340 0
340 -335 -339 0
339 335 340 0
-340 0
-341 335 -342 0
341 -335 -342 0
342 -335 -341 0
341 335 342 0
-342 0
-343 335 -344 0
343 -335 -344 0
344 -335 -343 0
343 335 344 0
-344 0
-345 335 -346 0
345 -335 -346 0
346 -335 -345 0
345 335 346 0
-346 0
-347 335 -348 0
347 -335 -348 0
348 -335 -347 0
347 335 348 0
-348 0
349 350 0
351 350 0
352 350 0
353 350 0
354 350 0
355 350 0
356 350 0
357 350 0
358 350 0
359 350 0
-360 0
-10 350 -361 0
10 -350 -361 0
361 -350 -10 0
10 350 361 0
-361 0
351 362 0
352 362 0
353 362 0
354 362 0
355 362 0
356 362 0
357 362 0
358 362 0
359 362 0
-363 0
-364 362 -365 0
364 -362 -365 0
365 -362 -364 0
364 362 365 0
-365 0
352 366 0
353 366 0
354 366 0
355 366 0
356 366 0
357 366 0
358 366 0
359 366 0
-367 0
-368 366 -369 0
368 -366 -369 0
369 -366 -368 0
368 366 369 0
-369 0
353 370 0
354 370 0
355 370 0
356 370 0
357 370 0
358 370 0
359 370 0
-371 0
-372 370 -373 0
372 -370 -373 0
373 -370 -372 0
372 370 373 0
-373 0
354 374 0
355 374 0
356 374 0
357 374 0
358 374 0
359 374 0
-375 0
-376 374 -377 0
376 -374 -377 0
377 -374 -376 0
376 374 377 0
-377 0
-378 374 -379 0
378 -374 -379 0
379 -374 -378 0
378 374 379 0
-379 0
-380 374 -381 0
380 -374 -381 0
381 -374 -380 0
380 374 381 0
-381 0
-382 374 -383 0
382 -374 -383 0
383 -374 -382 0
382 374 383 0
-383 0
-384 374 -385 0
384 -374 -385 0
385 -374 -384 0
384 374 385 0
-385 0
-386 374 -387 0
386 -374 -387 0
387 -374 -386 0
386 374 387 0
-387 0
388 389 0
390 389 0
391 389 0
392 389 0
393 389 0
394 389 0
395 389 0
396 389 0
397 389 0
-398 0
-11 389 -399 0
11 -389 -399 0
399 -389 -11 0
11 389 399 0
-399 0
390 400 0
391 400 0
392 400 0
393 400 0
394 400 0
395 400 0
396 400 0
397 400 0
-401 0
-402 400 -403 0
402 -400 -403 0
403 -400 -402 0
402 400 403 0
-403 0
391 404 0
392 404 0
393 404 0
394 404 0
395 404 0
396 404 0
397 404 0
-405 0
-406 404 -407 0
406 -404 -407 0
407 -404 -406 0
406 404 407 0
-407 0
392 408 0
393 408 0
394 408 0
395 408 0
396 408 0
397 408 0
-409 0
-410 408 -411 0
410 -408 -411 0
411 -408 -410 0
410 408 411 0
-411 0
393 412 0
394 412 0
395 412 0
396 412 0
397 412 0
-413 0
-414 412 -415 0
414 -412 -415 0
415 -412 -414 0
414 412 415 0
-415 0
-416 412 -417 0
416 -412 -417 0
417 -412 -416 0
416 412 417 0
-417 0
-418 412 -419 0
418 -412 -419 0
419 -412 -418 0
418 412 419 0
-419 0
-420 412 -421 0
420 -412 -421 0
421 -412 -420 0
420 412 421 0
-421 0
-422 412 -423 0
422 -412 -423 0
423 -412 -422 0
422 412 423 0
-423 0
424 425 0
426 425 0
427 425 0
428 425 0
429 425 0
430 425 0
431 425 0
432 425 0
433 425 0
434 425 0
435 425 0
-436 0
-12 425 -437 0
12 -425 -437 0
437 -425 -12 0
12 425 437 0
-437 0
426 438 0
427 438 0
428 438 0
429 438 0
430 438 0
431 438 0
432 438 0
433 438 0
434 438 0
435 438 0
-439 0
-440 438 -441 0
440 -438 -441 0
441 -438 -440 0
440 438 441 0
-441 0
427 442 0
428 442 0
429 442 0
430 442 0
431 442 0
432 442 0
433 442 0
434 442 0
435 442 0
-443 0
-444 442 -445 0
444 -442 -445 0
445 -442 -444 0
444 442 445 0
-445 0
428 446 0
429 446 0
430 446 0
431 446 0
432 446 0
433 446 0
434 446 0
435 446 0
-447 0
-448 446 -449 0
448 -446 -449 0
449 -446 -448 0
448 446 449 0
-449 0
429 450 0
430 450 0
431 450 0
432 450 0
433 450 0
434 450 0
435 450 0
-451 0
-452 450 -453 0
452 -450 -453 0
453 -450 -452 0
452 450 453 0
-453 0
430 454 0
431 454 0
432 454 0
433 454 0
434 454 0
435 454 0
-455 0
-456 454 -457 0
456 -454 -457 0
457 -454 -456 0
456 454 457 0
-457 0
-458 454 -459 0
458 -454 -459 0
459 -454 -458 0
458 454 459 0
-459 0
-460 454 -461 0
460 -454 -461 0
461 -454 -460 0
460 454 461 0
-461 0
-462 454 -463 0
462 -454 -463 0
463 -454 -462 0
462 454 463 0
-463 0
-464 454 -465 0
464 -454 -465 0
465 -454 -464 0
464 454 465 0
-465 0
-466 454 -467 0
466 -454 -467 0
467 -454 -466 0
466 454 467 0
-467 0
468 469 0
470 469 0
471 469 0
472 469 0
473 469 0
474 469 0
475 469 0
476 469 0
477 469 0
478 469 0
479 469 0
-480 0
-13 469 -481 0
13 -469 -481 0
481 -469 -13 0
13 469 481 0
-481 0
470 482 0
471 482 0
472 482 0
473 482 0
474 482 0
475 482 0
476 482 0
477 482 0
478 482 0
479 482 0
-483 0
-484 482 -485 0
484 -482 -485 0
485 -482 -484 0
484 482 485 0
-485 0
471 486 0
472 486 0
473 486 0
474 486 0
475 486 0
476 486 0
477 486 0
478 486 0
479 486 0
-487 0
-488 486 -489 0
488 -486 -489 0
489 -486 -488 0
488 486 489 0
-489 0
472 490 0
473 490 0
474 490 0
475 490 0
476 490 0
477 490 0
478 490 0
479 490 0
-491 0
-492 490 -493 0
492 -490 -493 0
493 -490 -492 0
492 490 493 0
-493 0
473 494 0
474 494 0
475 494 0
476 494 0
477 494 0
478 494 0
479 494 0
-495 0
-496 494 -497 0
496 -494 -497 0
497 -494 -496 0
496 494 497 0
-497 0
474 498 0
475 498 0
476 498 0
477 498 0
478 498 0
479 498 0
-499 0
-500 498 -501 0
500 -498 -501 0
501 -498 -500 0
500 498 501 0
-501 0
-502 498 -503 0
502 -498 -503 0
503 -498 -502 0
502 498 503 0
-503 0
-504 498 -505 0
504 -498 -505 0
505 -498 -504 0
504 498 505 0
-505 0
-506 498 -507 0
506 -498 -507 0
507 -498 -506 0
506 498 507 0
-507 0
-508 498 -509 0
508 -498 -509 0
509 -498 -508 0
508 498 509 0
-509 0
-510 498 -511 0
510 -498 -511 0
511 -498 -510 0
510 498 511 0
-511 0
512 513 0
514 513 0
515 513 0
516 513 0
517 513 0
518 513 0
519 513 0
520 513 0
-521 0
-14 513 -522 0
14 -513 -522 0
522 -513 -14 0
14 513 522 0
-522 0
514 523 0
515 523 0
516 523 0
517 523 0
518 523 0
519 523 0
520 523 0
-524 0
-525 523 -526 0
525 -523 -526 0
526 -523 -525 0
525 523 526 0
-526 0
515 527 0
516 527 0
517 527 0
518 527 0
519 527 0
520 527 0
-528 0
-529 527 -530 0
529 -527 -530 0
530 -527 -529 0
529 527 530 0
-530 0
516 531 0
517 531 0
518 531 0
519 531 0
520 531 0
-532 0
-533 531 -534 0
533 -531 -534 0
534 -531 -533 0
533 531 534 0
-534 0
517 535 0
518 535 0
519 535 0
520 535 0
-536 0
-537 535 -538 0
537 -535 -538 0
538 -535 -537 0
537 535 538 0
-538 0
-539 535 -540 0
539 -535 -540 0
540 -535 -539 0
539 535 540 0
-540 0
-541 535 -542 0
541 -535 -542 0
542 -535 -541 0
541 535 542 0
-542 0
-543 535 -544 0
543 -535 -544 0
544 -535 -543 0
543 535 544 0
-544 0
545 546 0
547 546 0
548 546 0
549 546 0
550 546 0
551 546 0
-552 0
-15 546 -553 0
15 -546 -553 0
553 -546 -15 0
15 546 553 0
-553 0
547 554 0
548 554 0
549 554 0
550 554 0
551 554 0
-555 0
-556 554 -557 0
556 -554 -557 0
557 -554 -556 0
556 554 557 0
-557 0
548 558 0
549 558 0
550 558 0
551 558 0
-559 0
-560 558 -561 0
560 -558 -561 0
561 -558 -560 0
560 558 561 0
-561 0
-562 558 -563 0
562 -558 -563 0
563 -558 -562 0
562 558 563 0
-563 0
-564 558 -565 0
564 -558 -565 0
565 -558 -564 0
564 558 565 0
-565 0
-566 558 -567 0
566 -558 -567 0
567 -558 -566 0
566 558 567 0
-567 0
568 569 0
570 569 0
571 569 0
572 569 0
573 569 0
574 569 0
575 569 0
576 569 0
577 569 0
578 569 0
579 569 0
-580 0
-16 569 -581 0
16 -569 -581 0
581 -569 -16 0
16 569 581 0
-581 0
570 582 0
571 582 0
572 582 0
573 582 0
574 582 0
575 582 0
576 582 0
577 582 0
578 582 0
579 582 0
-583 0
-584 582 -585 0
584 -582 -585 0
585 -582 -584 0
584 582 585 0
-585 0
571 586 0
572 586 0
573 586 0
574 586 0
575 586 0
576 586 0
577 586 0
578 586 0
579 586 0
-587 0
-588 586 -589 0
588 -586 -589 0
589 -586 -588 0
588 586 589 0
-589 0
572 590 0
573 590 0
574 590 0
575 590 0
576 590 0
577 590 0
578 590 0
579 590 0
-591 0
-592 590 -593 0
592 -590 -593 0
593 -590 -592 0
592 590 593 0
-593 0
573 594 0
574 594 0
575 594 0
576 594 0
577 594 0
578 594 0
579 594 0
-595 0
-596 594 -597 0
596 -594 -597 0
597 -594 -596 0
596 594 597 0
-597 0
574 598 0
575 598 0
576 598 0
577 598 0
578 598 0
579 598 0
-599 0
-600 598 -601 0
600 -598 -601 0
601 -598 -600 0
600 598 601 0
-601 0
-602 598 -603 0
602 -598 -603 0
603 -598 -602 0
602 598 603 0
-603 0
-604 598 -605 0
604 -598 -605 0
605 -598 -604 0
604 598 605 0
-605 0
-606 598 -607 0
606 -598 -607 0
607 -598 -606 0
606 598 607 0
-607 0
-608 598 -609 0
608 -598 -609 0
609 -598 -608 0
608 598 609 0
-609 0
-610 598 -611 0
610 -598 -611 0
611 -598 -610 0
610 598 611 0
-611 0
612 613 0
614 613 0
615 613 0
616 613 0
617 613 0
618 613 0
619 613 0
620 613 0
621 613 0
622 613 0
-623 0
-17 613 -624 0
17 -613 -624 0
624 -613 -17 0
17 613 624 0
-624 0
614 625 0
615 625 0
616 625 0
617 625 0
618 625 0
619 625 0
620 625 0
621 625 0
622 625 0
-626 0
-627 625 -628 0
627 -625 -628 0
628 -625 -627 0
627 625 628 0
-628 0
615 629 0
616 629 0
617 629 0
618 629 0
619 629 0
620 629 0
621 629 0
622 629 0
-630 0
-631 629 -632 0
631 -629 -632 0
632 -629 -631 0
631 629 632 0
-632 0
616 633 0
617 633 0
618 633 0
619 633 0
620 633 0
621 633 0
622 633 0
-634 0
-635 633 -636 0
635 -633 -636 0
636 -633 -635 0
635 633 636 0
-636 0
617 637 0
618 637 0
619 637 0
620 637 0
621 637 0
622 637 0
-638 0
-639 637 -640 0
639 -637 -640 0
640 -637 -639 0
639 637 640 0
-640 0
-641 637 -642 0
641 -637 -642 0
642 -637 -641 0
641 637 642 0
-642 0
-643 637 -644 0
643 -637 -644 0
644 -637 -643 0
643 637 644 0
-644 0
-645 637 -646 0
645 -637 -646 0
646 -637 -645 0
645 637 646 0
-646 0
-647 637 -648 0
647 -637 -648 0
648 -637 -647 0
647 637 648 0
-648 0
-649 637 -650 0
649 -637 -650 0
650 -637 -649 0
649 637 650 0
-650 0
651 652 0
653 652 0
654 652 0
655 652 0
656 652 0
657 652 0
658 652 0
659 652 0
660 652 0
661 652 0
662 652 0
663 652 0
-664 0
-18 652 -665 0
18 -652 -665 0
665 -652 -18 0
18 652 665 0
-665 0
653 666 0
654 666 0
655 666 0
656 666 0
657 666 0
658 666 0
659 666 0
660 666 0
661 666 0
662 666 0
663 666 0
-667 0
-668 666 -669 0
668 -666 -669 0
669 -666 -668 0
668 666 669 0
-669 0
654 670 0
655 670 0
656 670 0
657 670 0
658 670 0
659 670 0
660 670 0
661 670 0
662 670 0
663 670 0
-671 0
-672 670 -673 0
672 -670 -673 0
673 -670 -672 0
672 670 673 0
-673 0
655 674 0
656 674 0
657 674 0
658 674 0
659 674 0
660 674 0
661 674 0
662 674 0
663 674 0
-675 0
-676 674 -677 0
676 -674 -677 0
677 -674 -676 0
676 674 677 0
-677 0
656 678 0
657 678 0
658 678 0
659 678 0
660 678 0
661 678 0
662 678 0
663 678 0
-679 0
-680 678 -681 0
680 -678 -681 0
681 -678 -680 0
680 678 681 0
-681 0
657 682 0
658 682 0
659 682 0
660 682 0
661 682 0
662 682 0
663 682 0
-683 0
-684 682 -685 0
684 -682 -685 0
685 -682 -684 0
684 682 685 0
-685 0
658 686 0
659 686 0
660 686 0
661 686 0
662 686 0
663 686 0
-687 0
-688 686 -689 0
688 -686 -689 0
689 -686 -688 0
688 686 689 0
-689 0
-690 686 -691 0
690 -686 -691 0
691 -686 -690 0
690 686 691 0
-691 0
-692 686 -693 0
692 -686 -693 0
693 -686 -692 0
692 686 693 0
-693 0
-694 686 -695 0
694 -686 -695 0
695 -686 -694 0
694 686 695 0
-695 0
-696 686 -697 0
696 -686 -697 0
697 -686 -696 0
696 686 697 0
-697 0
-698 686 -699 0
698 -686 -699 0
699 -686 -698 0
698 686 699 0
-699 0
700 701 0
702 701 0
703 701 0
704 701 0
705 701 0
706 701 0
707 701 0
708 701 0
709 701 0
710 701 0
-711 0
-19 701 -712 0
19 -701 -712 0
712 -701 -19 0
19 701 712 0
-712 0
702 713 0
703 713 0
704 713 0
705 713 0
706 713 0
707 713 0
708 713 0
709 713 0
710 713 0
-714 0
-715 713 -716 0
715 -713 -716 0
716 -713 -715 0
715 713 716 0
-716 0
703 717 0
704 717 0
705 717 0
706 717 0
707 717 0
708 717 0
709 717 0
710 717 0
-718 0
-719 717 -720 0
719 -717 -720 0
720 -717 -719 0
719 717 720 0
-720 0
704 721 0
705 721 0
706 721 0
707 721 0
708 721 0
709 721 0
710 721 0
-722 0
-723 721 -724 0
723 -721 -724 0
724 -721 -723 0
723 721 724 0
-724 0
705 725 0
706 725 0
707 725 0
708 725 0
709 725 0
710 725 0
-726 0
-727 725 -728 0
727 -725 -728 0
728 -725 -727 0
727 725 728 0
-728 0
706 729 0
707 729 0
708 729 0
709 729 0
710 729 0
-730 0
-731 729 -732 0
731 -729 -732 0
732 -729 -731 0
731 729 732 0
-732 0
707 733 0
708 733 0
709 733 0
710 733 0
-734 0
-735 733 -736 0
735 -733 -736 0
736 -733 -735 0
735 733 736 0
-736 0
-737 733 -738 0
737 -733 -738 0
738 -733 -737 0
737 733 738 0
-738 0
-739 733 -740 0
739 -733 -740 0
740 -733 -739 0
739 733 740 0
-740 0
-741 733 -742 0
741 -733 -742 0
742 -733 -741 0
741 733 742 0
-742 0
743 744 0
745 744 0
746 744 0
747 744 0
748 744 0
749 744 0
750 744 0
751 744 0
752 744 0
-753 0
-20 744 -754 0
20 -744 -754 0
754 -744 -20 0
20 744 754 0
-754 0
745 755 0
746 755 0
747 755 0
748 755 0
749 755 0
750 755 0
751 755 0
752 755 0
-756 0
-757 755 -758 0
757 -755 -758 0
758 -755 -757 0
757 755 758 0
-758 0
746 759 0
747 759 0
748 759 0
749 759 0
750 759 0
751 759 0
752 759 0
-760 0
-761 759 -762 0
761 -759 -762 0
762 -759 -761 0
761 759 762 0
-762 0
747 763 0
748 763 0
749 763 0
750 763 0
751 763 0
752 763 0
-764 0
-765 763 -766 0
765 -763 -766 0
766 -763 -765 0
765 763 766 0
-766 0
748 767 0
749 767 0
750 767 0
751 767 0
752 767 0
-768 0
-769 767 -770 0
769 -767 -770 0
770 -767 -769 0
769 767 770 0
-770 0
749 771 0
750 771 0
751 771 0
752 771 0
-772 0
-773 771 -774 0
773 -771 -774 0
774 -771 -773 0
773 771 774 0
-774 0
-775 771 -776 0
775 -771 -776 0
776 -771 -775 0
775 771 776 0
-776 0
-777 771 -778 0
777 -771 -778 0
778 -771 -777 0
777 771 778 0
-778 0
-779 771 -780 0
779 -771 -780 0
780 -771 -779 0
779 771 780 0
-780 0
781 782 0
-783 782 0
-781 783 -782 0
21 -782 0
-21 782 0
784 785 0
-786 785 0
-784 786 -785 0
23 -785 0
-23 785 0
787 788 0
-789 788 0
-787 789 -788 0
24 -788 0
-24 788 0
790 791 0
-792 791 0
-790 792 -791 0
25 -791 0
-25 791 0
793 794 0
-795 794 0
-793 795 -794 0
26 -794 0
-26 794 0
796 797 0
-798 797 0
-796 798 -797 0
27 -797 0
-27 797 0
799 800 0
-801 800 0
-799 801 -800 0
28 -800 0
-28 800 0
802 803 0
-804 803 0
-802 804 -803 0
47 -803 0
-47 803 0
805 806 0
-807 806 0
-805 807 -806 0
49 -806 0
-49 806 0
808 809 0
-810 809 0
-808 810 -809 0
50 -809 0
-50 809 0
811 812 0
-813 812 0
-811 813 -812 0
51 -812 0
-51 812 0
814 815 0
-816 815 0
-814 816 -815 0
52 -815 0
-52 815 0
817 818 0
-819 818 0
-817 819 -818 0
53 -818 0
-53 818 0
820 821 0
-822 821 0
-820 822 -821 0
54 -821 0
-54 821 0
823 824 0
-825 824 0
-823 825 -824 0
55 -824 0
-55 824 0
826 827 0
-828 827 0
-826 828 -827 0
56 -827 0
-56 827 0
829 830 0
-831 830 0
-829 831 -830 0
57 -830 0
-57 830 0
832 833 0
-834 833 0
-832 834 -833 0
58 -833 0
-58 833 0
835 836 0
-837 836 0
-835 837 -836 0
91 -836 0
-91 836 0
838 839 0
-840 839 0
-838 840 -839 0
93 -839 0
-93 839 0
841 842 0
-843 842 0
-841 843 -842 0
94 -842 0
-94 842 0
844 845 0
-846 845 0
-844 846 -845 0
95 -845 0
-95 845 0
847 848 0
-849 848 0
-847 849 -848 0
96 -848 0
-96 848 0
850 851 0
-852 851 0
-850 852 -851 0
97 -851 0
-97 851 0
853 854 0
-855 854 0
-853 855 -854 0
98 -854 0
-98 854 0
856 857 0
-858 857 0
-856 858 -857 0
99 -857 0
-99 857 0
859 860 0
-861 860 0
-859 861 -860 0
100 -860 0
-100 860 0
862 863 0
-864 863 0
-862 864 -863 0
101 -863 0
-101 863 0
865 866 0
-867 866 0
-865 867 -866 0
132 -866 0
-132 866 0
868 869 0
-870 869 0
-868 870 -869 0
134 -869 0
-134 869 0
871 872 0
-873 872 0
-871 873 -872 0
135 -872 0
-135 872 0
874 875 0
-876 875 0
-874 876 -875 0
136 -875 0
-136 875 0
877 878 0
-879 878 0
-877 879 -878 0
146 -878 0
-146 878 0
880 881 0
-882 881 0
-880 882 -881 0
148 -881 0
-148 881 0
883 884 0
-885 884 0
-883 885 -884 0
149 -884 0
-149 884 0
886 887 0
-888 887 0
-886 888 -887 0
150 -887 0
-150 887 0
889 890 0
-891 890 0
-889 891 -890 0
151 -890 0
-151 890 0
892 893 0
-894 893 0
-892 894 -893 0
152 -893 0
-152 893 0
895 896 0
-897 896 0
-895 897 -896 0
153 -896 0
-153 896 0
898 899 0
-900 899 0
-898 900 -899 0
154 -899 0
-154 899 0
901 902 0
-903 902 0
-901 903 -902 0
155 -902 0
-155 902 0
904 905 0
-906 905 0
-904 906 -905 0
156 -905 0
-156 905 0
907 908 0
-909 908 0
-907 909 -908 0
187 -908 0
-187 908 0
910 911 0
-912 911 0
-910 912 -911 0
189 -911 0
-189 911 0
913 914 0
-915 914 0
-913 915 -914 0
190 -914 0
-190 914 0
916 917 0
-918 917 0
-916 918 -917 0
191 -917 0
-191 917 0
919 920 0
-921 920 0
-919 921 -920 0
192 -920 0
-192 920 0
922 923 0
-924 923 0
-922 924 -923 0
193 -923 0
-193 923 0
925 926 0
-927 926 0
-925 927 -926 0
194 -926 0
-194 926 0
928 929 0
-930 929 0
-928 930 -929 0
195 -929 0
-195 929 0
931 932 0
-933 932 0
-931 933 -932 0
196 -932 0
-196 932 0
934 935 0
-936 935 0
-934 936 -935 0
223 -935 0
-223 935 0
937 938 0
-939 938 0
-937 939 -938 0
225 -938 0
-225 938 0
940 941 0
-942 941 0
-940 942 -941 0
226 -941 0
-226 941 0
943 944 0
-945 944 0
-943 945 -944 0
227 -944 0
-227 944 0
946 947 0
-948 947 0
-946 948 -947 0
228 -947 0
-228 947 0
949 950 0
-951 950 0
-949 951 -950 0
229 -950 0
-229 950 0
952 953 0
-954 953 0
-952 954 -953 0
230 -953 0
-230 953 0
955 956 0
-957 956 0
-955 957 -956 0
231 -956 0
-231 956 0
958 959 0
-960 959 0
-958 960 -959 0
232 -959 0
-232 959 0
961 962 0
-963 962 0
-961 963 -962 0
233 -962 0
-233 962 0
964 965 0
-966 965 0
-964 966 -965 0
234 -965 0
-234 965 0
967 968 0
-969 968 0
-967 969 -968 0
267 -968 0
-267 968 0
970 971 0
-972 971 0
-970 972 -971 0
269 -971 0
-269 971 0
973 974 0
-975 974 0
-973 975 -974 0
270 -974 0
-270 974 0
976 977 0
-978 977 0
-976 978 -977 0
271 -977 0
-271 977 0
979 980 0
-981 980 0
-979 981 -980 0
272 -980 0
-272 980 0
982 983 0
-984 983 0
-982 984 -983 0
273 -983 0
-273 983 0
985 986 0
-987 986 0
-985 987 -986 0
274 -986 0
-274 986 0
988 989 0
-990 989 0
-988 990 -989 0
275 -989 0
-275 989 0
991 992 0
-993 992 0
-991 993 -992 0
276 -992 0
-276 992 0
994 995 0
-996 995 0
-994 996 -995 0
305 -995 0
-305 995 0
997 998 0
-999 998 0
-997 999 -998 0
307 -998 0
-307 998 0
1000 1001 0
-1002 1001 0
-1000 1002 -1001 0
308 -1001 0
-308 1001 0
1003 1004 0
-1005 1004 0
-1003 1005 -1004 0
309 -1004 0
-309 1004 0
1006 1007 0
-1008 1007 0
-1006 1008 -1007 0
310 -1007 0
-310 1007 0
1009 1010 0
-1011 1010 0
-1009 1011 -1010 0
311 -1010 0
-311 1010 0
1012 1013 0
-1014 1013 0
-1012 1014 -1013 0
312 -1013 0
-312 1013 0
1015 1016 0
-1017 1016 0
-1015 1017 -1016 0
313 -1016 0
-313 1016 0
1018 1019 0
-1020 1019 0
-1018 1020 -1019 0
314 -1019 0
-314 1019 0
1021 1022 0
-1023 1022 0
-1021 1023 -1022 0
315 -1022 0
-315 1022 0
1024 1025 0
-1026 1025 0
-1024 1026 -1025 0
316 -1025 0
-316 1025 0
1027 1028 0
-1029 1028 0
-1027 1029 -1028 0
349 -1028 0
-349 1028 0
1030 1031 0
-1032 1031 0
-1030 1032 -1031 0
351 -1031 0
-351 1031 0
1033 1034 0
-1035 1034 0
-1033 1035 -1034 0
352 -1034 0
-352 1034 0
1036 1037 0
-1038 1037 0
-1036 1038 -1037 0
353 -1037 0
-353 1037 0
1039 1040 0
-1041 1040 0
-1039 1041 -1040 0
354 -1040 0
-354 1040 0
1042 1043 0
-1044 1043 0
-1042 1044 -1043 0
355 -1043 0
-355 1043 0
1045 1046 0
-1047 1046 0
-1045 1047 -1046 0
356 -1046 0
-356 1046 0
1048 1049 0
-1050 1049 0
-1048 1050 -1049 0
357 -1049 0
-357 1049 0
1051 1052 0
-1053 1052 0
-1051 1053 -1052 0
358 -1052 0
-358 1052 0
1054 1055 0
-1056 1055 0
-1054 1056 -1055 0
359 -1055 0
-359 1055 0
1057 1058 0
-1059 1058 0
-1057 1059 -1058 0
388 -1058 0
-388 1058 0
1060 1061 0
1061 -1062 0
-1060 1062 -1061 0
390 -1061 0
-390 1061 0
1063 1064 0
-1065 1064 0
-1063 1065 -1064 0
391 -1064 0
-391 1064 0
1066 1067 0
1067 -1068 0
-1066 1068 -1067 0
392 -1067 0
-392 1067 0
1069 1070 0
1070 -1071 0
-1069 1071 -1070 0
393 -1070 0
-393 1070 0
1072 1073 0
1073 -1074 0
-1072 1074 -1073 0
394 -1073 0
-394 1073 0
1075 1076 0
1076 -1077 0
-1075 1077 -1076 0
395 -1076 0
-395 1076 0
1078 1079 0
-1080 1079 0
-1078 1080 -1079 0
396 -1079 0
-396 1079 0
1081 1082 0
-1083 1082 0
-1081 1083 -1082 0
397 -1082 0
-397 1082 0
1084 1085 0
-1086 1085 0
-1084 1086 -1085 0
424 -1085 0
-424 1085 0
1087 1088 0
-1089 1088 0
-1087 1089 -1088 0
426 -1088 0
-426 1088 0
1090 1091 0
-1092 1091 0
-1090 1092 -1091 0
427 -1091 0
-427 1091 0
1093 1094 0
-1095 1094 0
-1093 1095 -1094 0
428 -1094 0
-428 1094 0
1096 1097 0
1097 -1098 0
-1096 1098 -1097 0
429 -1097 0
-429 1097 0
1099 1100 0
-1101 1100 0
-1099 1101 -1100 0
430 -1100 0
-430 1100 0
1102 1103 0
1103 -1104 0
-1102 1104 -1103 0
431 -1103 0
-431 1103 0
1105 1106 0
1106 -1107 0
-1105 1107 -1106 0
432 -1106 0
-432 1106 0
1108 1109 0
1109 -1110 0
-1108 1110 -1109 0
433 -1109 0
-433 1109 0
1111 1112 0
-1113 1112 0
-1111 1113 -1112 0
434 -1112 0
-434 1112 0
1114 1115 0
-1116 1115 0
-1114 1116 -1115 0
435 -1115 0
-435 1115 0
1117 1118 0
-1119 1118 0
-1117 1119 -1118 0
468 -1118 0
-468 1118 0
1120 1121 0
-1122 1121 0
-1120 1122 -1121 0
470 -1121 0
-470 1121 0
1123 1124 0
1124 -1125 0
-1123 1125 -1124 0
471 -1124 0
-471 1124 0
1126 1127 0
-1128 1127 0
-1126 1128 -1127 0
472 -1127 0
-472 1127 0
1129 1130 0
-1131 1130 0
-1129 1131 -1130 0
473 -1130 0
-473 1130 0
1132 1133 0
-1134 1133 0
-1132 1134 -1133 0
474 -1133 0
-474 1133 0
1135 1136 0
-1137 1136 0
-1135 1137 -1136 0
475 -1136 0
-475 1136 0
1138 1139 0
-1140 1139 0
-1138 1140 -1139 0
476 -1139 0
-476 1139 0
1141 1142 0
1142 -1143 0
-1141 1143 -1142 0
477 -1142 0
-477 1142 0
1144 1145 0
1145 -1146 0
-1144 1146 -1145 0
478 -1145 0
-478 1145 0
1147 1148 0
-1149 1148 0
-1147 1149 -1148 0
479 -1148 0
-479 1148 0
1150 1151 0
1151 -1152 0
-1150 1152 -1151 0
512 -1151 0
-512 1151 0
1153 1154 0
-1155 1154 0
-1153 1155 -1154 0
514 -1154 0
-514 1154 0
1156 1157 0
-1158 1157 0
-1156 1158 -1157 0
515 -1157 0
-515 1157 0
1159 1160 0
-1161 1160 0
-1159 1161 -1160 0
516 -1160 0
-516 1160 0
1162 1163 0
1163 -1164 0
-1162 1164 -1163 0
517 -1163 0
-517 1163 0
1165 1166 0
1166 -1167 0
-1165 1167 -1166 0
518 -1166 0
-518 1166 0
1168 1169 0
-1170 1169 0
-1168 1170 -1169 0
519 -1169 0
-519 1169 0
1171 1172 0
-1173 1172 0
-1171 1173 -1172 0
520 -1172 0
-520 1172 0
1174 1175 0
-1176 1175 0
-1174 1176 -1175 0
545 -1175 0
-545 1175 0
1177 1178 0
-1179 1178 0
-1177 1179 -1178 0
547 -1178 0
-547 1178 0
1180 1181 0
1181 -1182 0
-1180 1182 -1181 0
548 -1181 0
-548 1181 0
1183 1184 0
1184 -1185 0
-1183 1185 -1184 0
549 -1184 0
-549 1184 0
1186 1187 0
-1188 1187 0
-1186 1188 -1187 0
550 -1187 0
-550 1187 0
1189 1190 0
1190 -1191 0
-1189 1191 -1190 0
551 -1190 0
-551 1190 0
1192 1193 0
-1194 1193 0
-1192 1194 -1193 0
568 -1193 0
-568 1193 0
1195 1196 0
-1197 1196 0
-1195 1197 -1196 0
570 -1196 0
-570 1196 0
1198 1199 0
-1200 1199 0
-1198 1200 -1199 0
571 -1199 0
-571 1199 0
1201 1202 0
-1203 1202 0
-1201 1203 -1202 0
572 -1202 0
-572 1202 0
1204 1205 0
-1206 1205 0
-1204 1206 -1205 0
573 -1205 0
-573 1205 0
1207 1208 0
-1209 1208 0
-1207 1209 -1208 0
574 -1208 0
-574 1208 0
1210 1211 0
1211 -1212 0
-1210 1212 -1211 0
575 -1211 0
-575 1211 0
1213 1214 0
-1215 1214 0
-1213 1215 -1214 0
576 -1214 0
-576 1214 0
1216 1217 0
-1218 1217 0
-1216 1218 -1217 0
577 -1217 0
-577 1217 0
1219 1220 0
-1221 1220 0
-1219 1221 -1220 0
578 -1220 0
-578 1220 0
1222 1223 0
1223 -1224 0
-1222 1224 -1223 0
579 -1223 0
-579 1223 0
1225 1226 0
-1227 1226 0
-1225 1227 -1226 0
612 -1226 0
-612 1226 0
1228 1229 0
-1230 1229 0
-1228 1230 -1229 0
614 -1229 0
-614 1229 0
1231 1232 0
1232 -1233 0
-1231 1233 -1232 0
615 -1232 0
-615 1232 0
1234 1235 0
-1236 1235 0
-1234 1236 -1235 0
616 -1235 0
-616 1235 0
1237 1238 0
-1239 1238 0
-1237 1239 -1238 0
617 -1238 0
-617 1238 0
1240 1241 0
-1242 1241 0
-1240 1242 -1241 0
618 -1241 0
-618 1241 0
1243 1244 0
-1245 1244 0
-1243 1245 -1244 0
619 -1244 0
-619 1244 0
1246 1247 0
1247 -1248 0
-1246 1248 -1247 0
620 -1247 0
-620 1247 0
1249 1250 0
-1251 1250 0
-1249 1251 -1250 0
621 -1250 0
-621 1250 0
1252 1253 0
1253 -1254 0
-1252 1254 -1253 0
622 -1253 0
-622 1253 0
1255 1256 0
-1257 1256 0
-1255 1257 -1256 0
651 -1256 0
-651 1256 0
1258 1259 0
-1260 1259 0
-1258 1260 -1259 0
653 -1259 0
-653 1259 0
1261 1262 0
1262 -1263 0
-1261 1263 -1262 0
654 -1262 0
-654 1262 0
1264 1265 0
-1266 1265 0
-1264 1266 -1265 0
655 -1265 0
-655 1265 0
1267 1268 0
1268 -1269 0
-1267 1269 -1268 0
656 -1268 0
-656 1268 0
1270 1271 0
-1272 1271 0
-1270 1272 -1271 0
657 -1271 0
-657 1271 0
1273 1274 0
-1275 1274 0
-1273 1275 -1274 0
658 -1274 0
-658 1274 0
1276 1277 0
-1278 1277 0
-1276 1278 -1277 0
659 -1277 0
-659 1277 0
1279 1280 0
-1281 1280 0
-1279 1281 -1280 0
660 -1280 0
-660 1280 0
1282 1283 0
-1284 1283 0
-1282 1284 -1283 0
661 -1283 0
-661 1283 0
1285 1286 0
1286 -1287 0
-1285 1287 -1286 0
662 -1286 0
-662 1286 0
1288 1289 0
1289 -1290 0
-1288 1290 -1289 0
663 -1289 0
-663 1289 0
1291 1292 0
1292 -1293 0
-1291 1293 -1292 0
700 -1292 0
-700 1292 0
1294 1295 0
-1296 1295 0
-1294 1296 -1295 0
702 -1295 0
-702 1295 0
1297 1298 0
-1299 1298 0
-1297 1299 -1298 0
703 -1298 0
-703 1298 0
1300 1301 0
1301 -1302 0
-1300 1302 -1301 0
704 -1301 0
-704 1301 0
1303 1304 0
-1305 1304 0
-1303 1305 -1304 0
705 -1304 0
-705 1304 0
1306 1307 0
-1308 1307 0
-1306 1308 -1307 0
706 -1307 0
-706 1307 0
1309 1310 0
-1311 1310 0
-1309 1311 -1310 0
707 -1310 0
-707 1310 0
1312 1313 0
-1314 1313 0
-1312 1314 -1313 0
708 -1313 0
-708 1313 0
1315 1316 0
-1317 1316 0
-1315 1317 -1316 0
709 -1316 0
-709 1316 0
1318 1319 0
1319 -1320 0
-1318 1320 -1319 0
710 -1319 0
-710 1319 0
1321 1322 0
-1323 1322 0
-1321 1323 -1322 0
743 -1322 0
-743 1322 0
1324 1325 0
-1326 1325 0
-1324 1326 -1325 0
745 -1325 0
-745 1325 0
1327 1328 0
-1329 1328 0
-1327 1329 -1328 0
746 -1328 0
-746 1328 0
1330 1331 0
1331 -1332 0
-1330 1332 -1331 0
747 -1331 0
-747 1331 0
1333 1334 0
-1335 1334 0
-1333 1335 -1334 0
748 -1334 0
-748 1334 0
1336 1337 0
1337 -1338 0
-1336 1338 -1337 0
749 -1337 0
-749 1337 0
1339 1340 0
-1341 1340 0
-1339 1341 -1340 0
750 -1340 0
-750 1340 0
1342 1343 0
-1344 1343 0
-1342 1344 -1343 0
751 -1343 0
-751 1343 0
1345 1346 0
-1347 1346 0
-1345 1347 -1346 0
752 -1346 0
-752 1346 0
-781 0
784 0
787 0
-790 0
-793 0
-796 0
-799 0
-802 0
-805 0
-808 0
-811 0
-814 0
817 0
-820 0
823 0
-826 0
-829 0
-832 0
-835 0
838 0
841 0
844 0
847 0
850 0
853 0
856 0
859 0
-862 0
-865 0
-868 0
871 0
-874 0
-877 0
-880 0
-883 0
-886 0
889 0
892 0
895 0
898 0
-901 0
-904 0
-907 0
-910 0
913 0
-916 0
919 0
922 0
-925 0
-928 0
931 0
-934 0
-937 0
940 0
943 0
-946 0
949 0
-952 0
-955 0
-958 0
-961 0
964 0
967 0
-970 0
-973 0
976 0
-979 0
982 0
-985 0
988 0
991 0
-994 0
-997 0
1000 0
1003 0
-1006 0
-1009 0
1012 0
1015 0
1018 0
1021 0
1024 0
-1027 0
-1030 0
-1033 0
1036 0
1039 0
1042 0
-1045 0
1048 0
-1051 0
-1054 0
-1057 0
1060 0
-1063 0
1066 0
1069 0
1072 0
1075 0
-1078 0
1081 0
-1084 0
-1087 0
-1090 0
-1093 0
1096 0
-1099 0
1102 0
1105 0
1108 0
-1111 0
-1114 0
-1117 0
-1120 0
1123 0
-1126 0
-1129 0
-1132 0
1135 0
1138 0
1141 0
1144 0
-1147 0
1150 0
1153 0
-1156 0
1159 0
1162 0
1165 0
-1168 0
-1171 0
1174 0
-1177 0
1180 0
1183 0
-1186 0
1189 0
-1192 0
-1195 0
-1198 0
1201 0
-1204 0
1207 0
1210 0
1213 0
-1216 0
-1219 0
1222 0
-1225 0
-1228 0
1231 0
-1234 0
1237 0
-1240 0
-1243 0
1246 0
1249 0
1252 0
1255 0
-1258 0
1261 0
-1264 0
1267 0
1270 0
-1273 0
-1276 0
-1279 0
-1282 0
1285 0
1288 0
1291 0
1294 0
1297 0
1300 0
-1303 0
-1306 0
1309 0
-1312 0
-1315 0
1318 0
1321 0
-1324 0
1327 0
1330 0
-1333 0
1336 0
-1339 0
1342 0
1345 0
-1348 -1349 0
783 -1348 0
-1348 -786 0
-1348 -789 0
-1348 -792 0
-1348 -795 0
-1348 -798 0
-1348 -801 0
804 -1348 0
807 -1348 0
810 -1348 0
813 -1348 0
816 -1348 0
-1348 -819 0
-1348 -822 0
-1348 -825 0
-1348 -828 0
-1348 -831 0
-1348 -834 0
837 -1348 0
-1348 -840 0
-1348 -843 0
-1348 -846 0
-1348 -849 0
-1348 -852 0
-1348 -855 0
-1348 -858 0
-1348 -861 0
-1348 -864 0
-1348 -867 0
870 -1348 0
-1348 -873 0
-1348 -876 0
879 -1348 0
882 -1348 0
885 -1348 0
-1348 -888 0
-1348 -891 0
-1348 -894 0
-1348 -897 0
-1348 -900 0
-1348 -903 0
-1348 -906 0
909 -1348 0
912 -1348 0
-1348 -915 0
-1348 -918 0
-1348 -921 0
-1348 -924 0
-1348 -927 0
-1348 -930 0
-1348 -933 0
936 -1348 0
939 -1348 0
-1348 -942 0
-1348 -945 0
-1348 -948 0
-1348 -951 0
-1348 -954 0
-1348 -957 0
-1348 -960 0
-1348 -963 0
-1348 -966 0
-1348 -969 0
-1348 -972 0
-1348 -975 0
-1348 -978 0
-1348 -981 0
-1348 -984 0
-1348 -987 0
-1348 -990 0
-1348 -993 0
-1348 -996 0
999 -1348 0
-1348 -1002 0
-1348 -1005 0
-1348 -1008 0
-1348 -1011 0
-1348 -1014 0
-1348 -1017 0
-1348 -1020 0
-1348 -1023 0
-1348 -1026 0
1029 -1348 0
1032 -1348 0
1035 -1348 0
-1348 -1038 0
-1348 -1041 0
-1348 -1044 0
-1348 -1047 0
-1348 -1050 0
-1348 -1053 0
-1348 -1056 0
1059 -1348 0
1062 -1348 0
1065 -1348 0
1068 -1348 0
1071 -1348 0
1074 -1348 0
1077 -1348 0
1080 -1348 0
-1348 -1083 0
-1348 -1086 0
1089 -1348 0
-1348 -1092 0
-1348 -1095 0
1098 -1348 0
1101 -1348 0
1104 -1348 0
1107 -1348 0
1110 -1348 0
-1348 -1113 0
1116 -1348 0
-1348 -1119 0
-1348 -1122 0
1125 -1348 0
1128 -1348 0
-1348 -1131 0
1134 -1348 0
-1348 -1137 0
-1348 -1140 0
1143 -1348 0
1146 -1348 0
1149 -1348 0
1152 -1348 0
-1348 -1155 0
-1348 -1158 0
-1348 -1161 0
1164 -1348 0
1167 -1348 0
-1348 -1170 0
-1348 -1173 0
-1348 -1176 0
1179 -1348 0
1182 -1348 0
1185 -1348 0
1188 -1348 0
1191 -1348 0
-1348 -1194 0
-1348 -1197 0
-1348 -1200 0
-1348 -1203 0
1206 -1348 0
-1348 -1209 0
1212 -1348 0
-1348 -1215 0
-1348 -1218 0
-1348 -1221 0
1224 -1348 0
-1348 -1227 0
-1348 -1230 0
1233 -1348 0
-1348 -1236 0
-1348 -1239 0
1242 -1348 0
1245 -1348 0
1248 -1348 0
-1348 -1251 0
1254 -1348 0
-1348 -1257 0
1260 -1348 0
1263 -1348 0
-1348 -1266 0
1269 -1348 0
-1348 -1272 0
1275 -1348 0
1278 -1348 0
1281 -1348 0
1284 -1348 0
1287 -1348 0
1290 -1348 0
1293 -1348 0
-1348 -1296 0
-1348 -1299 0
1302 -1348 0
-1348 -1305 0
-1348 -1308 0
-1348 -1311 0
1314 -1348 0
1317 -1348 0
1320 -1348 0
-1348 -1323 0
1326 -1348 0
-1348 -1329 0
1332 -1348 0
-1348 -1335 0
1338 -1348 0
1341 -1348 0
-1348 -1344 0
-1348 -1347 0
-1349 -783 0
786 -1349 0
789 -1349 0
-1349 -792 0
-1349 -795 0
-1349 -798 0
-1349 -801 0
-1349 -804 0
-1349 -807 0
-1349 -810 0
-1349 -813 0
-1349 -816 0
819 -1349 0
-1349 -822 0
825 -1349 0
-1349 -828 0
-1349 -831 0
-1349 -834 0
-1349 -837 0
840 -1349 0
843 -1349 0
846 -1349 0
849 -1349 0
852 -1349 0
855 -1349 0
858 -1349 0
861 -1349 0
-1349 -864 0
-1349 -867 0
-1349 -870 0
873 -1349 0
-1349 -876 0
-1349 -879 0
-1349 -882 0
-1349 -885 0
-1349 -888 0
891 -1349 0
894 -1349 0
897 -1349 0
900 -1349 0
-1349 -903 0
-1349 -906 0
-1349 -909 0
-1349 -912 0
915 -1349 0
-1349 -918 0
921 -1349 0
924 -1349 0
-1349 -927 0
-1349 -930 0
933 -1349 0
-1349 -936 0
-1349 -939 0
942 -1349 0
945 -1349 0
-1349 -948 0
951 -1349 0
-1349 -954 0
-1349 -957 0
-1349 -960 0
-1349 -963 0
966 -1349 0
969 -1349 0
-1349 -972 0
-1349 -975 0
978 -1349 0
-1349 -981 0
984 -1349 0
-1349 -987 0
990 -1349 0
993 -1349 0
-1349 -996 0
-1349 -999 0
1002 -1349 0
1005 -1349 0
-1349 -1008 0
-1349 -1011 0
1014 -1349 0
1017 -1349 0
1020 -1349 0
1023 -1349 0
1026 -1349 0
-1349 -1029 0
-1349 -1032 0
-1349 -1035 0
1038 -1349 0
1041 -1349 0
1044 -1349 0
-1349 -1047 0
1050 -1349 0
-1349 -1053 0
-1349 -1056 0
-1349 -1059 0
1062 -1349 0
-1349 -1065 0
1068 -1349 0
1071 -1349 0
1074 -1349 0
1077 -1349 0
-1349 -1080 0
1083 -1349 0
-1349 -1086 0
-1349 -1089 0
-1349 -1092 0
-1349 -1095 0
1098 -1349 0
-1349 -1101 0
1104 -1349 0
1107 -1349 0
1110 -1349 0
-1349 -1113 0
-1349 -1116 0
-1349 -1119 0
-1349 -1122 0
1125 -1349 0
-1349 -1128 0
-1349 -1131 0
-1349 -1134 0
1137 -1349 0
1140 -1349 0
1143 -1349 0
1146 -1349 0
-1349 -1149 0
1152 -1349 0
1155 -1349 0
-1349 -1158 0
1161 -1349 0
1164 -1349 0
1167 -1349 0
-1349 -1170 0
-1349 -1173 0
1176 -1349 0
-1349 -1179 0
1182 -1349 0
1185 -1349 0
-1349 -1188 0
1191 -1349 0
-1349 -1194 0
-1349 -1197 0
-1349 -1200 0
1203 -1349 0
-1349 -1206 0
1209 -1349 0
1212 -1349 0
1215 -1349 0
-1349 -1218 0
-1349 -1221 0
1224 -1349 0
-1349 -1227 0
-1349 -1230 0
1233 -1349 0
-1349 -1236 0
1239 -1349 0
-1349 -1242 0
-1349 -1245 0
1248 -1349 0
1251 -1349 0
1254 -1349 0
1257 -1349 0
-1349 -1260 0
1263 -1349 0
-1349 -1266 0
1269 -1349 0
1272 -1349 0
-1349 -1275 0
-1349 -1278 0
-1349 -1281 0
-1349 -1284 0
1287 -1349 0
1290 -1349 0
1293 -1349 0
1296 -1349 0
1299 -1349 0
1302 -1349 0
-1349 -1305 0
-1349 -1308 0
1311 -1349 0
-1349 -1314 0
-1349 -1317 0
1320 -1349 0
1323 -1349 0
-1349 -1326 0
1329 -1349 0
1332 -1349 0
-1349 -1335 0
1338 -1349 0
-1349 -1341 0
1344 -1349 0
1347 -1349 0
1348 1349 0
-1350 0
-1351 0
-1352 0
-1353 0
-1354 0
-1355 0
-1356 0
-1357 0
